name="p06";
nr_vertices=16;
nr_edges=38;
neighborhoods=[{3,6,8,14},{2,7,9,15},{1,7,8,10,12},{0,6,9,11,13},{6,11,12,15},{7,10,13,14},{0,3,4,12,15},{1,2,5,13,14},{0,2,10,12,14},{1,3,11,13,15},{2,5,8,12},{3,4,9,13},{2,4,6,8,10,15},{3,5,7,9,11,14},{0,5,7,8,13},{1,4,6,9,12}];
weights=[240,240,230,230,124,124,85,85,50,50,25,25,5,5,5,5];
